Number of variables: 231
Number of constraints: 516
Constraints density: 0.03733346756602571
Maximum factor: 948600.0
Minimum factor: 0.00012
26.29375457763672ms cplex
36.23008728027344ms glpk
36.00645065307617ms lp_solve
36.360740661621094ms clp
-20239263.2472786 Value of objective function [cplex]
-20239263.25 Value of objective function [glpk]
-20239300.0 Value of objective function [lp_solve]
-20239263.0 Value of objective function [clp]
